10	5 
435	4	1	23	2	45	0	82	4	84	3	38
254	4	2	21	1	29	0	18	4	41	3	50
339	2	2	38	3	54	4	16	0	52	1	52
454	2	4	37	0	54	2	74	1	62	3	57
475	2	4	57	0	81	1	61	3	68	2	30
558	2	4	81	0	79	1	89	2	89	3	11
368	2	3	33	2	20	0	91	4	20	1	66
324	2	4	24	1	84	0	32	2	55	3	8
352	1	4	56	0	7	3	54	2	64	1	39
251	1	4	40	1	83	0	19	2	8	3	7
